<instance format="XCSP3" type="COP">
  <variables>
    <array id="x" size="[40]"> 0 1 </array>
  </variables>
  <constraints>
    <sum>
      <list> x[] </list>
      <coeffs> 12 35 31 13 28 20 5 24 10 17 2 36 27 8 36 35 21 31 6 11 18 36 32 22 11 2 21 19 20 1 16 22 2 4 12 33 31 23 31 14 </coeffs>
      <condition> (le,150) </condition>
    </sum>
  </constraints>
  <objectives>
    <maximize type="sum">
      <list> x[] </list>
      <coeffs> 40 38 93 13 69 100 99 95 42 44 6 62 72 96 82 90 9 93 9 69 61 15 37 100 37 45 91 46 100 29 23 81 69 38 52 64 64 82 80 25 </coeffs>
    </maximize>
  </objectives>
</instance>
